
Gurobi 6.5.2 (win64) logging started 07/24/16 17:33:38


Gurobi 6.5.2 (win64) logging started 07/24/16 17:33:38

Optimize a model with 3105 rows, 758 columns and 7956 nonzeros
Coefficient statistics:
  Matrix range    [6e-08, 1e+03]
  Objective range [1e+00, 1e+00]
  Bounds range    [1e+00, 1e+00]
  RHS range       [6e-06, 1e+03]
Presolve removed 2863 rows and 509 columns
Presolve time: 0.00s
Presolved: 242 rows, 249 columns, 1044 nonzeros
Variable types: 249 continuous, 0 integer (0 binary)

Root relaxation: objective 2.170669e+01, 284 iterations, 0.02 seconds

    Nodes    |    Current Node    |     Objective Bounds      |     Work
 Expl Unexpl |  Obj  Depth IntInf | Incumbent    BestBd   Gap | It/Node Time

*    0     0               0      21.7066932   21.70669  0.00%     -    0s

Explored 0 nodes (284 simplex iterations) in 0.02 seconds
Thread count was 8 (of 8 available processors)

Optimal solution found (tolerance 1.00e-04)
Best objective 2.170669316776e+01, best bound 2.170669316776e+01, gap 0.0%

Wrote requested result file 'H1\instance17\\Results17EC_Sol4.lp'

